p cnf 8 17
-2 5 3 7 -6 1 8 0
-4 8 2 6 -3 -7 -5 0
-3 8 -6 7 1 -2 0
7 2 8 -5 -6 0
4 -6 8 1 -7 -2 5 0
4 -8 -2 0
-5 -3 -4 -1 7 -8 2 0
7 2 1 0
6 5 3 -2 -8 0
-2 -1 -7 -8 -5 4 -6 3 0
6 5 -4 -3 -2 7 -1 -8 0
7 5 3 6 0
2 -8 -5 1 -4 7 6 -3 0
-1 -6 4 5 -3 7 -8 0
8 -4 7 -5 0
-5 -3 6 -1 4 0
8 -2 1 5 -7 4 -6 3 0
